25° run output:
{
    "Function": "kroA1000.tsp",
    "Problem dimension": [
        492,
        82,
        610,
        665,
        508,
        770,
        86,
        888,
        798,
        820,
        158,
        439,
        241,
        106,
        685,
        455,
        788,
        70,
        304,
        452,
        793,
        257,
        706,
        637,
        389,
        503,
        709,
        466,
        566,
        855,
        179,
        502,
        288,
        95,
        237,
        275,
        298,
        447,
        799,
        296,
        740,
        119,
        569,
        656,
        851,
        39,
        498,
        728,
        256,
        494,
        969,
        877,
        130,
        878,
        797,
        604,
        634,
        961,
        117,
        457,
        525,
        445,
        959,
        206,
        202,
        464,
        626,
        661,
        160,
        921,
        519,
        593,
        613,
        169,
        800,
        261,
        544,
        591,
        109,
        849,
        753,
        14,
        12,
        443,
        783,
        116,
        902,
        985,
        66,
        719,
        228,
        91,
        624,
        42,
        162,
        196,
        437,
        489,
        34,
        41,
        844,
        923,
        253,
        647,
        102,
        306,
        554,
        151,
        602,
        507,
        963,
        662,
        191,
        123,
        332,
        926,
        628,
        435,
        705,
        611,
        394,
        135,
        497,
        725,
        790,
        531,
        311,
        112,
        441,
        214,
        726,
        287,
        653,
        861,
        147,
        506,
        239,
        916,
        724,
        305,
        63,
        403,
        62,
        848,
        17,
        230,
        630,
        918,
        270,
        681,
        545,
        367,
        415,
        733,
        177,
        223,
        111,
        786,
        866,
        125,
        739,
        271,
        843,
        430,
        830,
        994,
        864,
        382,
        821,
        205,
        660,
        781,
        168,
        101,
        105,
        617,
        349,
        845,
        881,
        771,
        189,
        463,
        358,
        40,
        722,
        576,
        352,
        818,
        501,
        759,
        49,
        397,
        930,
        782,
        583,
        754,
        171,
        472,
        154,
        936,
        635,
        330,
        76,
        804,
        555,
        689,
        97,
        523,
        541,
        919,
        183,
        934,
        859,
        420,
        327,
        391,
        468,
        43,
        980,
        487,
        232,
        203,
        621,
        318,
        763,
        458,
        812,
        444,
        20,
        530,
        522,
        122,
        180,
        294,
        26,
        320,
        381,
        910,
        282,
        10,
        56,
        513,
        841,
        832,
        670,
        366,
        198,
        784,
        60,
        900,
        129,
        690,
        978,
        911,
        442,
        323,
        18,
        339,
        4,
        860,
        163,
        747,
        369,
        37,
        865,
        81,
        756,
        477,
        568,
        505,
        165,
        139,
        57,
        281,
        406,
        321,
        481,
        229,
        758,
        279,
        897,
        874,
        456,
        355,
        780,
        858,
        283,
        3,
        359,
        476,
        377,
        960,
        993,
        895,
        644,
        344,
        379,
        469,
        981,
        894,
        835,
        594,
        73,
        629,
        853,
        199,
        736,
        499,
        194,
        686,
        427,
        94,
        636,
        51,
        646,
        24,
        374,
        939,
        927,
        890,
        347,
        11,
        831,
        143,
        700,
        943,
        509,
        672,
        645,
        375,
        319,
        245,
        9,
        303,
        808,
        847,
        553,
        868,
        795,
        619,
        588,
        22,
        913,
        701,
        5,
        556,
        156,
        787,
        527,
        718,
        813,
        764,
        473,
        432,
        392,
        623,
        570,
        314,
        998,
        13,
        277,
        924,
        216,
        115,
        386,
        776,
        58,
        751,
        448,
        693,
        285,
        493,
        882,
        211,
        33,
        691,
        745,
        560,
        898,
        982,
        956,
        935,
        862,
        414,
        549,
        166,
        324,
        249,
        219,
        419,
        796,
        880,
        140,
        616,
        110,
        7,
        145,
        161,
        399,
        217,
        2,
        16,
        438,
        879,
        21,
        398,
        950,
        778,
        925,
        641,
        28,
        976,
        631,
        251,
        842,
        388,
        258,
        317,
        872,
        108,
        276,
        702,
        551,
        680,
        863,
        425,
        475,
        299,
        480,
        944,
        164,
        29,
        811,
        213,
        408,
        421,
        488,
        826,
        713,
        875,
        127,
        822,
        190,
        677,
        500,
        655,
        521,
        72,
        574,
        589,
        889,
        983,
        674,
        620,
        688,
        47,
        436,
        431,
        268,
        580,
        470,
        765,
        149,
        417,
        652,
        907,
        673,
        357,
        625,
        454,
        462,
        348,
        155,
        834,
        632,
        309,
        819,
        351,
        79,
        98,
        104,
        735,
        535,
        518,
        839,
        148,
        345,
        590,
        760,
        46,
        15,
        750,
        905,
        716,
        54,
        567,
        951,
        89,
        61,
        292,
        914,
        483,
        886,
        987,
        68,
        131,
        538,
        564,
        45,
        333,
        350,
        181,
        173,
        711,
        938,
        533,
        794,
        75,
        648,
        255,
        638,
        300,
        329,
        25,
        598,
        289,
        703,
        262,
        891,
        986,
        937,
        962,
        885,
        920,
        85,
        495,
        248,
        664,
        755,
        730,
        997,
        170,
        342,
        769,
        779,
        854,
        103,
        748,
        524,
        823,
        953,
        599,
        578,
        235,
        272,
        78,
        446,
        120,
        440,
        695,
        676,
        528,
        696,
        968,
        471,
        912,
        595,
        802,
        984,
        721,
        675,
        869,
        558,
        548,
        992,
        884,
        883,
        510,
        707,
        490,
        581,
        597,
        871,
        791,
        207,
        67,
        991,
        215,
        732,
        867,
        48,
        210,
        201,
        909,
        727,
        178,
        353,
        752,
        540,
        356,
        582,
        93,
        496,
        152,
        412,
        55,
        789,
        649,
        144,
        284,
        618,
        603,
        280,
        383,
        107,
        901,
        141,
        291,
        53,
        964,
        137,
        286,
        772,
        958,
        717,
        586,
        511,
        453,
        335,
        50,
        290,
        534,
        949,
        90,
        550,
        83,
        873,
        337,
        642,
        301,
        715,
        242,
        671,
        966,
        585,
        614,
        197,
        491,
        838,
        220,
        341,
        596,
        84,
        100,
        942,
        176,
        893,
        484,
        741,
        744,
        807,
        428,
        698,
        310,
        184,
        816,
        529,
        193,
        236,
        605,
        761,
        536,
        857,
        516,
        315,
        955,
        766,
        856,
        159,
        774,
        387,
        908,
        990,
        360,
        334,
        424,
        999,
        742,
        218,
        803,
        302,
        126,
        667,
        485,
        557,
        373,
        209,
        23,
        32,
        208,
        579,
        809,
        411,
        266,
        572,
        265,
        532,
        175,
        157,
        402,
        343,
        687,
        44,
        478,
        972,
        264,
        38,
        970,
        312,
        801,
        714,
        260,
        723,
        92,
        777,
        639,
        316,
        465,
        396,
        393,
        71,
        734,
        450,
        238,
        467,
        364,
        643,
        263,
        482,
        965,
        423,
        683,
        738,
        322,
        460,
        267,
        254,
        622,
        307,
        659,
        474,
        52,
        250,
        552,
        627,
        418,
        699,
        526,
        226,
        814,
        274,
        762,
        932,
        6,
        967,
        325,
        543,
        188,
        138,
        27,
        124,
        948,
        537,
        704,
        563,
        128,
        887,
        372,
        222,
        995,
        376,
        561,
        118,
        833,
        365,
        31,
        244,
        395,
        59,
        87,
        361,
        979,
        146,
        915,
        429,
        362,
        133,
        846,
        940,
        247,
        340,
        433,
        805,
        615,
        346,
        278,
        405,
        234,
        517,
        547,
        99,
        640,
        80,
        479,
        269,
        952,
        559,
        401,
        810,
        174,
        512,
        69,
        825,
        767,
        30,
        657,
        182,
        64,
        903,
        295,
        773,
        370,
        380,
        679,
        233,
        142,
        520,
        153,
        293,
        737,
        132,
        792,
        88,
        651,
        19,
        243,
        246,
        308,
        933,
        817,
        195,
        712,
        221,
        167,
        836,
        606,
        0,
        461,
        74,
        678,
        973,
        896,
        136,
        710,
        571,
        577,
        240,
        400,
        1,
        378,
        684,
        658,
        996,
        114,
        785,
        928,
        663,
        225,
        852,
        338,
        113,
        422,
        607,
        546,
        565,
        731,
        633,
        562,
        539,
        708,
        434,
        449,
        608,
        150,
        186,
        587,
        806,
        192,
        413,
        331,
        96,
        697,
        121,
        837,
        77,
        899,
        775,
        917,
        584,
        363,
        977,
        668,
        416,
        231,
        326,
        354,
        922,
        224,
        592,
        252,
        876,
        947,
        768,
        954,
        65,
        575,
        407,
        313,
        815,
        336,
        989,
        904,
        974,
        870,
        542,
        829,
        746,
        410,
        409,
        840,
        975,
        692,
        682,
        612,
        729,
        200,
        390,
        654,
        451,
        650,
        892,
        459,
        297,
        609,
        669,
        328,
        929,
        946,
        36,
        371,
        757,
        368,
        134,
        824,
        185,
        694,
        850,
        988,
        720,
        404,
        515,
        945,
        931,
        906,
        827,
        426,
        600,
        504,
        743,
        749,
        273,
        212,
        259,
        601,
        227,
        514,
        486,
        187,
        941,
        828,
        8,
        971,
        385,
        204,
        172,
        573,
        35,
        957,
        666,
        384
    ],
    "Global Optimum": 0,
    "Algorithm": "Genetic algorithm",
    "Parameters": {
        "population": 30,
        "offspring": 30,
        "mutation probability": 0.001,
        "crossover probability": 0.9
    },
    "Fitness": 1447921,
    "Solution": [
        492,
        82,
        610,
        665,
        508,
        770,
        86,
        888,
        798,
        820,
        158,
        439,
        241,
        106,
        685,
        455,
        788,
        70,
        304,
        452,
        793,
        257,
        706,
        637,
        389,
        503,
        709,
        466,
        566,
        855,
        179,
        502,
        288,
        95,
        237,
        275,
        298,
        447,
        799,
        296,
        740,
        119,
        569,
        656,
        851,
        39,
        498,
        728,
        256,
        494,
        969,
        877,
        130,
        878,
        797,
        604,
        634,
        961,
        117,
        457,
        525,
        445,
        959,
        206,
        202,
        464,
        626,
        661,
        160,
        921,
        519,
        593,
        613,
        169,
        800,
        261,
        544,
        591,
        109,
        849,
        753,
        14,
        12,
        443,
        783,
        116,
        902,
        985,
        66,
        719,
        228,
        91,
        624,
        42,
        162,
        196,
        437,
        489,
        34,
        41,
        844,
        923,
        253,
        647,
        102,
        306,
        554,
        151,
        602,
        507,
        963,
        662,
        191,
        123,
        332,
        926,
        628,
        435,
        705,
        611,
        394,
        135,
        497,
        725,
        790,
        531,
        311,
        112,
        441,
        214,
        726,
        287,
        653,
        861,
        147,
        506,
        239,
        916,
        724,
        305,
        63,
        403,
        62,
        848,
        17,
        230,
        630,
        918,
        270,
        681,
        545,
        367,
        415,
        733,
        177,
        223,
        111,
        786,
        866,
        125,
        739,
        271,
        843,
        430,
        830,
        994,
        864,
        382,
        821,
        205,
        660,
        781,
        168,
        101,
        105,
        617,
        349,
        845,
        881,
        771,
        189,
        463,
        358,
        40,
        722,
        576,
        352,
        818,
        501,
        759,
        49,
        397,
        930,
        782,
        583,
        754,
        171,
        472,
        154,
        936,
        635,
        330,
        76,
        804,
        555,
        689,
        97,
        523,
        541,
        919,
        183,
        934,
        859,
        420,
        327,
        391,
        468,
        43,
        980,
        487,
        232,
        203,
        621,
        318,
        763,
        458,
        812,
        444,
        20,
        530,
        522,
        122,
        180,
        294,
        26,
        320,
        381,
        910,
        282,
        10,
        56,
        513,
        841,
        832,
        670,
        366,
        198,
        784,
        60,
        900,
        129,
        690,
        978,
        911,
        442,
        323,
        18,
        339,
        4,
        860,
        163,
        747,
        369,
        37,
        865,
        81,
        756,
        477,
        568,
        505,
        165,
        139,
        57,
        281,
        406,
        321,
        481,
        229,
        758,
        279,
        897,
        874,
        456,
        355,
        780,
        858,
        283,
        3,
        359,
        476,
        377,
        960,
        993,
        895,
        644,
        344,
        379,
        469,
        981,
        894,
        835,
        594,
        73,
        629,
        853,
        199,
        736,
        499,
        194,
        686,
        427,
        94,
        636,
        51,
        646,
        24,
        374,
        939,
        927,
        890,
        347,
        11,
        831,
        143,
        700,
        943,
        509,
        672,
        645,
        375,
        319,
        245,
        9,
        303,
        808,
        847,
        553,
        868,
        795,
        619,
        588,
        22,
        913,
        701,
        5,
        556,
        156,
        787,
        527,
        718,
        813,
        764,
        473,
        432,
        392,
        623,
        570,
        314,
        998,
        13,
        277,
        924,
        216,
        115,
        386,
        776,
        58,
        751,
        448,
        693,
        285,
        493,
        882,
        211,
        33,
        691,
        745,
        560,
        898,
        982,
        956,
        935,
        862,
        414,
        549,
        166,
        324,
        249,
        219,
        419,
        796,
        880,
        140,
        616,
        110,
        7,
        145,
        161,
        399,
        217,
        2,
        16,
        438,
        879,
        21,
        398,
        950,
        778,
        925,
        641,
        28,
        976,
        631,
        251,
        842,
        388,
        258,
        317,
        872,
        108,
        276,
        702,
        551,
        680,
        863,
        425,
        475,
        299,
        480,
        944,
        164,
        29,
        811,
        213,
        408,
        421,
        488,
        826,
        713,
        875,
        127,
        822,
        190,
        677,
        500,
        655,
        521,
        72,
        574,
        589,
        889,
        983,
        674,
        620,
        688,
        47,
        436,
        431,
        268,
        580,
        470,
        765,
        149,
        417,
        652,
        907,
        673,
        357,
        625,
        454,
        462,
        348,
        155,
        834,
        632,
        309,
        819,
        351,
        79,
        98,
        104,
        735,
        535,
        518,
        839,
        148,
        345,
        590,
        760,
        46,
        15,
        750,
        905,
        716,
        54,
        567,
        951,
        89,
        61,
        292,
        914,
        483,
        886,
        987,
        68,
        131,
        538,
        564,
        45,
        333,
        350,
        181,
        173,
        711,
        938,
        533,
        794,
        75,
        648,
        255,
        638,
        300,
        329,
        25,
        598,
        289,
        703,
        262,
        891,
        986,
        937,
        962,
        885,
        920,
        85,
        495,
        248,
        664,
        755,
        730,
        997,
        170,
        342,
        769,
        779,
        854,
        103,
        748,
        524,
        823,
        953,
        599,
        578,
        235,
        272,
        78,
        446,
        120,
        440,
        695,
        676,
        528,
        696,
        968,
        471,
        912,
        595,
        802,
        984,
        721,
        675,
        869,
        558,
        548,
        992,
        884,
        883,
        510,
        707,
        490,
        581,
        597,
        871,
        791,
        207,
        67,
        991,
        215,
        732,
        867,
        48,
        210,
        201,
        909,
        727,
        178,
        353,
        752,
        540,
        356,
        582,
        93,
        496,
        152,
        412,
        55,
        789,
        649,
        144,
        284,
        618,
        603,
        280,
        383,
        107,
        901,
        141,
        291,
        53,
        964,
        137,
        286,
        772,
        958,
        717,
        586,
        511,
        453,
        335,
        50,
        290,
        534,
        949,
        90,
        550,
        83,
        873,
        337,
        642,
        301,
        715,
        242,
        671,
        966,
        585,
        614,
        197,
        491,
        838,
        220,
        341,
        596,
        84,
        100,
        942,
        176,
        893,
        484,
        741,
        744,
        807,
        428,
        698,
        310,
        184,
        816,
        529,
        193,
        236,
        605,
        761,
        536,
        857,
        516,
        315,
        955,
        766,
        856,
        159,
        774,
        387,
        908,
        990,
        360,
        334,
        424,
        999,
        742,
        218,
        803,
        302,
        126,
        667,
        485,
        557,
        373,
        209,
        23,
        32,
        208,
        579,
        809,
        411,
        266,
        572,
        265,
        532,
        175,
        157,
        402,
        343,
        687,
        44,
        478,
        972,
        264,
        38,
        970,
        312,
        801,
        714,
        260,
        723,
        92,
        777,
        639,
        316,
        465,
        396,
        393,
        71,
        734,
        450,
        238,
        467,
        364,
        643,
        263,
        482,
        965,
        423,
        683,
        738,
        322,
        460,
        267,
        254,
        622,
        307,
        659,
        474,
        52,
        250,
        552,
        627,
        418,
        699,
        526,
        226,
        814,
        274,
        762,
        932,
        6,
        967,
        325,
        543,
        188,
        138,
        27,
        124,
        948,
        537,
        704,
        563,
        128,
        887,
        372,
        222,
        995,
        376,
        561,
        118,
        833,
        365,
        31,
        244,
        395,
        59,
        87,
        361,
        979,
        146,
        915,
        429,
        362,
        133,
        846,
        940,
        247,
        340,
        433,
        805,
        615,
        346,
        278,
        405,
        234,
        517,
        547,
        99,
        640,
        80,
        479,
        269,
        952,
        559,
        401,
        810,
        174,
        512,
        69,
        825,
        767,
        30,
        657,
        182,
        64,
        903,
        295,
        773,
        370,
        380,
        679,
        233,
        142,
        520,
        153,
        293,
        737,
        132,
        792,
        88,
        651,
        19,
        243,
        246,
        308,
        933,
        817,
        195,
        712,
        221,
        167,
        836,
        606,
        0,
        461,
        74,
        678,
        973,
        896,
        136,
        710,
        571,
        577,
        240,
        400,
        1,
        378,
        684,
        658,
        996,
        114,
        785,
        928,
        663,
        225,
        852,
        338,
        113,
        422,
        607,
        546,
        565,
        731,
        633,
        562,
        539,
        708,
        434,
        449,
        608,
        150,
        186,
        587,
        806,
        192,
        413,
        331,
        96,
        697,
        121,
        837,
        77,
        899,
        775,
        917,
        584,
        363,
        977,
        668,
        416,
        231,
        326,
        354,
        922,
        224,
        592,
        252,
        876,
        947,
        768,
        954,
        65,
        575,
        407,
        313,
        815,
        336,
        989,
        904,
        974,
        870,
        542,
        829,
        746,
        410,
        409,
        840,
        975,
        692,
        682,
        612,
        729,
        200,
        390,
        654,
        451,
        650,
        892,
        459,
        297,
        609,
        669,
        328,
        929,
        946,
        36,
        371,
        757,
        368,
        134,
        824,
        185,
        694,
        850,
        988,
        720,
        404,
        515,
        945,
        931,
        906,
        827,
        426,
        600,
        504,
        743,
        749,
        273,
        212,
        259,
        601,
        227,
        514,
        486,
        187,
        941,
        828,
        8,
        971,
        385,
        204,
        172,
        573,
        35,
        957,
        666,
        384
    ],
    "Nb of functions evaluations": 50010,
    "Computational time in seconds": 1505.700855255127,
    "Stopping criterion in evaluations": 50000
}